Function: get_partitions took 1.8835067749023438e-05 seconds
Function: map_flows_partitions took 3.0994415283203125e-06 seconds
Building model with:
2 devices, 3 partitions and 1 flows
Using license file /home/anup/gurobi.lic
Academic license - for non-commercial use only
Function: MIP.add_frac_mem_var took 0.00022745132446289062 seconds
Function: MIP.add_coverage_constraints took 0.00022745132446289062 seconds
Function: MIP.add_accuracy_constraints took 0.00016045570373535156 seconds
Function: MIP.add_capacity_constraints took 0.0002777576446533203 seconds
Changed value of parameter TimeLimit to 120.0
   Prev: inf  Min: 0.0  Max: inf  Default: inf
--------------------------------------------------
Starting model update
Model update took: 5.245208740234375e-05 s
--------------------------------------------------
Starting model optimize
Gurobi Optimizer version 9.0.0 build v9.0.0rc2 (linux64)
Optimize a model with 14 rows, 18 columns and 37 nonzeros
Model fingerprint: 0x0fba33e7
Model has 1 general constraint
Variable types: 12 continuous, 6 integer (6 binary)
Coefficient statistics:
  Matrix range     [1e+00, 2e+00]
  Objective range  [1e+00, 1e+00]
  Bounds range     [1e+00, 3e+04]
  RHS range        [1e+00, 1e+00]

---------------------------------------------------------------------------
Multi-objectives: starting optimization with 2 objectives ... 
---------------------------------------------------------------------------

Multi-objectives: applying initial presolve ...
---------------------------------------------------------------------------

Presolve removed 5 rows and 6 columns
Presolve time: 0.00s
Presolved: 9 rows and 12 columns
---------------------------------------------------------------------------

Multi-objectives: optimize objective 1 (max_mem) ...
---------------------------------------------------------------------------

Presolve removed 3 rows and 3 columns
Presolve time: 0.00s
Presolved: 6 rows, 9 columns, 18 nonzeros
Variable types: 2 continuous, 7 integer (7 binary)
Found heuristic solution: objective 5.0976562
Found heuristic solution: objective 3.3984375

Root relaxation: objective 2.548828e+00, 4 iterations, 0.00 seconds

    Nodes    |    Current Node    |     Objective Bounds      |     Work
 Expl Unexpl |  Obj  Depth IntInf | Incumbent    BestBd   Gap | It/Node Time

     0     0    2.54883    0    2    3.39844    2.54883  25.0%     -    0s
     0     0    2.54883    0    6    3.39844    2.54883  25.0%     -    0s

Cutting planes:
  Gomory: 1
  MIR: 1
  Flow cover: 1
  GUB cover: 1

Explored 1 nodes (7 simplex iterations) in 0.00 seconds
Thread count was 8 (of 8 available processors)

Solution count 2: 3.39844 5.09766 

Optimal solution found (tolerance 1.00e-04)
Best objective 3.398437500000e+00, best bound 3.398437500000e+00, gap 0.0000%
---------------------------------------------------------------------------

Multi-objectives: optimize objective 2 (tot_mem) ...
---------------------------------------------------------------------------


Loaded user MIP start with objective 5.09766

Presolve removed 3 rows and 3 columns
Presolve time: 0.00s
Presolved: 7 rows, 9 columns, 22 nonzeros
Variable types: 2 continuous, 7 integer (7 binary)

Root relaxation: cutoff, 2 iterations, 0.00 seconds

    Nodes    |    Current Node    |     Objective Bounds      |     Work
 Expl Unexpl |  Obj  Depth IntInf | Incumbent    BestBd   Gap | It/Node Time

     0     0     cutoff    0         5.09766    5.09766  0.00%     -    0s

Explored 0 nodes (2 simplex iterations) in 0.00 seconds
Thread count was 8 (of 8 available processors)

Solution count 1: 5.09766 

Optimal solution found (tolerance 1.00e-04)
Best objective 5.097656250000e+00, best bound 5.097656250000e+00, gap 0.0000%

---------------------------------------------------------------------------
Multi-objectives: solved in 0.01 seconds, solution count 2

Model optimize took: 0.0052492618560791016 seconds
--------------------------------------------------

Solution quality statistics for model Univmon :
  Maximum violation:
    Bound       : 0.00000000e+00
    Constraint  : 0.00000000e+00
    Integrality : 0.00000000e+00

Sketch (0) (cm: eps0: 0.00625, del0: 0.05, min_mem: 1.69921875)
Par: 1, Rows: 1
(-0.000,0)    (1.000,1)    
Total frac: 1.000
Par: 2, Rows: 1
(-0.000,0)    (1.000,1)    
Total frac: 1.000
Par: 3, Rows: 1
(-0.000,1)    (1.000,0)    
Total frac: 1.000

Device (0) CPU_1:
Rows total: 1.0
Mem total: 1.69921875

Device (1) P4_1:
Rows total: 2.0
Mem total: 3.3984375
--------------------------------------------------
Changed value of parameter NonConvex to 2
   Prev: -1  Min: -1  Max: 2  Default: -1

Throughput: 93.33333333333333 Mpps, ns per packet: 10.714285714285715
Resources: 70.5710082054138
Used Cores: 6.999999999999998, Total CPUS: 1, Switch Memory: 3.3984375

Sketch (0) (cm: eps0: 0.00625, del0: 0.05, min_mem: 1.69921875)
Par: 1, Rows: 1
(-0.000,0)    (1.000,1)    
Total frac: 1.000
Par: 2, Rows: 1
(-0.000,0)    (1.000,1)    
Total frac: 1.000
Par: 3, Rows: 1
(-0.000,1)    (1.000,0)    
Total frac: 1.000

Device (0) CPU_1:
cores_sketch: 1.0, cores_dpdk: 5.999999999999998
Rows total: 1.0
Mem total: 1.69921875
Throughput: 93.33333333333333

Device (1) P4_1:
Rows total: 2.0
Mem total: 3.3984375
Throughput: 148.0
--------------------------------------------------
Function: MIP.solve took 0.03772568702697754 seconds
Function: solve took 0.03796577453613281 seconds
